NAME : XML100_2164_27
DIMENSION : 101
NB_CLUSTERS : 29
CLUSTERING_ALG : DBSCAN
CLUSTERING_PARAMS : eps(68), minSamples(3)
CLUSTERS
1 0
2 1 16 24 77 89
3 5 46 74 93
4 9 20 40
5 10 12 26 29 76 80 96
6 15 63 85 90
7 25 31 47 70 87
8 11 32 50 58 71 81 84 100
9 33 75 83 88 98
10 37 59 91 99
11 14 56 66
12 18 45 49 68 94
13 3 65 95
14 19 36 92
15 2 13 21 64
16 28 43 82
17 23 42 73
18 53 54
19 35 69
20 6 97
21 22 55 67
22 44 48 79
23 34 51 62
24 41 86
25 7 8 17 60
26 27 57
27 52 72
28 30 38 61
29 4 39 78
EOF